34 1000000000
49370805 869351850 288826340 183301565 652211029 635069123 667110064 45615102 678400374 895069827 616127113 150036066 259687410 128762889 306792670 788480489 494734314 677931609 792573856 765523899 237704000 100780764 106395074 911701408 174659867 331291102 949719999 400298121 819015271 102278415 562688531 185784581 667436114 39490051
802721822 -446077762 998099088 -310178098 41132231 -722201706 596350372 -918681587 301856467 889692910 949980182 -357639139 -604104232 948594573 -46682568 -511210311 -848758811 -607920274 257579962 -302820254 -846845592 281708452 658093590 -845976422 54355718 815724794 120917815 765387048 -799823161 617778232 -638378913 -597989008 705795478 136784285
